log log.lammps

units	metal
atom_style atomic
newton on

read_data au36.data

pair_style	flare
pair_coeff	* * lmp.flare

compute unc all flare/std/atom L_inv_lmp.flare sparse_desc_lmp.flare
compute MaxUnc all reduce max c_unc

mass            1 196.97
mass            2 32.06
mass            3 12.011
mass            4 1.00


velocity all create 300.0 4928459 rot yes dist gaussian
fix 1 all nvt temp 300 300 $(100.0*dt)
dump dump_all all custom 10 output.dump id type x y z fx fy fz c_unc
thermo 10
thermo_style custom step temp pe etotal press vol c_MaxUnc

run 100000

